<instance format="XCSP3" type="COP">
  <variables>
    <array id="x" note="x[i] is the ith number in the circle" size="[25]"> 1..25 </array>
    <var id="z" note="z is the minimal value such that any (circular) subsequence of x  of size r is less than or equal to z"> 0..310 </var>
  </variables>
  <constraints>
    <allDifferent note="a permutation is required"> x[] </allDifferent>
    <group note="any subsequence of size r must be less than or equal to z">
      <sum>
        <list> %... </list>
        <condition> (le,z) </condition>
      </sum>
      <args> x[0..19] </args>
      <args> x[1..20] </args>
      <args> x[2..21] </args>
      <args> x[3..22] </args>
      <args> x[4..23] </args>
      <args> x[5..24] </args>
      <args> x[6..24] x[0] </args>
      <args> x[7..24] x[0..1] </args>
      <args> x[8..24] x[0..2] </args>
      <args> x[9..24] x[0..3] </args>
      <args> x[10..24] x[0..4] </args>
      <args> x[11..24] x[0..5] </args>
      <args> x[12..24] x[0..6] </args>
      <args> x[13..24] x[0..7] </args>
      <args> x[14..24] x[0..8] </args>
      <args> x[15..24] x[0..9] </args>
      <args> x[16..24] x[0..10] </args>
      <args> x[17..24] x[0..11] </args>
      <args> x[18..24] x[0..12] </args>
      <args> x[19..24] x[0..13] </args>
      <args> x[20..24] x[0..14] </args>
      <args> x[21..24] x[0..15] </args>
      <args> x[22..24] x[0..16] </args>
      <args> x[23..24] x[0..17] </args>
      <args> x[24] x[0..18] </args>
    </group>
    <block class="symmetry-breaking">
      <intension> eq(x[0],1) </intension>
      <intension> lt(x[1],x[24]) </intension>
    </block>
  </constraints>
  <objectives>
    <minimize> z </minimize>
  </objectives>
</instance>
